n_res = 4;
rc = [ 41, 30, 27, 33 ];
n_tasks = 60;
d = [ 3, 6, 6, 4, 10, 6, 1, 8, 1, 7, 8, 1, 4, 9, 10, 8, 6, 6, 9, 4, 8, 7, 7, 3, 4, 3, 4, 9, 6, 5, 5, 9, 3, 7, 4, 10, 9, 4, 1, 6, 9, 5, 7, 7, 9, 4, 7, 2, 2, 6, 8, 6, 3, 4, 2, 8, 8, 8, 5, 3 ];
rr = [| 6, 8, 0, 10, 2, 0, 0, 1, 8, 10, 2, 10, 3, 0, 0, 0, 6, 9, 0, 3, 0, 1, 8, 10, 0, 8, 0, 9, 3, 0, 6, 1, 2, 0, 9, 3, 5, 0, 2, 5, 0, 9, 0, 0, 0, 0, 7, 5, 10, 0, 1, 2, 0, 0, 1, 0, 8, 0, 8, 10
      | 0, 4, 0, 0, 0, 0, 0, 7, 9, 8, 0, 8, 0, 0, 4, 0, 7, 0, 0, 2, 6, 0, 10, 0, 3, 0, 5, 0, 0, 10, 0, 0, 0, 1, 9, 0, 0, 1, 5, 0, 3, 10, 0, 0, 0, 2, 5, 9, 0, 0, 0, 3, 0, 5, 7, 0, 3, 5, 10, 0
      | 0, 0, 8, 4, 0, 10, 0, 0, 0, 0, 2, 0, 0, 0, 0, 0, 1, 10, 0, 0, 1, 0, 0, 0, 0, 0, 0, 1, 0, 0, 0, 3, 0, 0, 1, 9, 4, 0, 6, 9, 6, 9, 3, 8, 1, 0, 0, 0, 8, 1, 3, 0, 3, 0, 0, 7, 1, 10, 0, 0
      | 8, 10, 0, 0, 9, 0, 1, 2, 9, 8, 0, 8, 5, 4, 10, 4, 0, 6, 2, 0, 0, 5, 9, 0, 0, 0, 0, 5, 0, 0, 0, 0, 5, 0, 9, 0, 0, 0, 9, 9, 0, 0, 1, 0, 0, 0, 0, 10, 1, 3, 2, 0, 8, 6, 0, 0, 8, 0, 0, 10 |];
suc = [ { 2 }, 
        { 1 }, 
        { 4 }, 
        { 3 }, 
        { 6 }, 
        { 5 }, 
        { 8 }, 
        { 7 }, 
        { 10 }, 
        { 9 }, 
        { 12 }, 
        { 11 }, 
        { 14 }, 
        { 13 }, 
        { 16 }, 
        { 15 }, 
        { 18 }, 
        { 17 }, 
        { 20 }, 
        { 19 }, 
        { 22 }, 
        { 21 }, 
        { 24 }, 
        { 23 }, 
        { 26 }, 
        { 25 }, 
        { 28 }, 
        { 27 }, 
        { 30 }, 
        { 29 }, 
        { 32 }, 
        { 31 }, 
        { 34 }, 
        { 33 }, 
        { 36 }, 
        { 35 }, 
        { 38 }, 
        { 37 }, 
        { 40 }, 
        { 39 }, 
        { 42 }, 
        { 41 }, 
        { 44 }, 
        { 43 }, 
        { 46 }, 
        { 45 }, 
        { 48 }, 
        { 47 }, 
        { 50 }, 
        { 49 }, 
        { 52 }, 
        { 51 }, 
        { 54 }, 
        { 53 }, 
        { 56 }, 
        { 55 }, 
        { 58 }, 
        { 57 }, 
        { 60 }, 
        { 59 }]; 
